GLPSOL--GLPK LP/MIP Solver 5.0
Parameter(s) specified in the command line:
 --lp ../modeles/5_79.lp --log 5_79.log
Reading problem data from '../modeles/5_79.lp'...
416 rows, 800 columns, 2790 non-zeros
395 integer variables, all of which are binary
1227 lines were read
GLPK Integer Optimizer 5.0
416 rows, 800 columns, 2790 non-zeros
395 integer variables, all of which are binary
Preprocessing...
390 constraint coefficient(s) were reduced
416 rows, 795 columns, 2785 non-zeros
395 integer variables, all of which are binary
Scaling...
 A: min|aij| =  6.409e-04  max|aij| =  4.000e+00  ratio =  6.241e+03
GM: min|aij| =  1.125e-01  max|aij| =  8.888e+00  ratio =  7.900e+01
EQ: min|aij| =  1.266e-02  max|aij| =  1.000e+00  ratio =  7.900e+01
2N: min|aij| =  1.025e-02  max|aij| =  1.677e+00  ratio =  1.636e+02
Constructing initial basis...
Size of triangular part is 416
Solving LP relaxation...
GLPK Simplex Optimizer 5.0
416 rows, 795 columns, 2785 non-zeros
      0: obj =   1.000000000e+01 inf =   2.450e+01 (11)
     64: obj =   4.984775641e-01 inf =   0.000e+00 (0)
*   197: obj =  -2.232946554e+00 inf =   2.254e-15 (0)
OPTIMAL LP SOLUTION FOUND
Integer optimization begins...
Long-step dual simplex will be used
+   197: mip =     not found yet >=              -inf        (1; 0)
+   200: >>>>>  -2.232946554e+00 >=  -2.232946554e+00   0.0% (3; 0)
+   200: mip =  -2.232946554e+00 >=     tree is empty   0.0% (0; 5)
INTEGER OPTIMAL SOLUTION FOUND
Time used:   0.0 secs
Memory used: 1.2 Mb (1232393 bytes)
